benchmarks/VRPTW/TSPTW/solution/n60w40.004.txt.solution
1 4 56 11 51 9 39 27 14 25 13 10 33 32 36 28 24 30 54 50 42 44 23 40 22 58 60 6 5 16 38 20 55 15 52 31 21 45 49 3 12 18 8 19 43 47 34 48 2 41 26 37 35 17 53 59 29 46 61 57 7 
597
